
Gurobi 10.0.1 (linux64) logging started Sun Nov 26 15:37:23 2023

Set parameter LogFile to value "ArtificialInstance/ExperimentV2/S3T4K3/BaRo/gurobi1.txt"
Gurobi Optimizer version 10.0.1 build v10.0.1rc0 (linux64)

CPU model: AMD EPYC 7H12 64-Core Processor, instruction set [SSE2|AVX|AVX2]
Thread count: 128 physical cores, 128 logical processors, using up to 32 threads

Academic license 656792 - for non-commercial use only - registered to b.___@student.vu.nl
Optimize a model with 4023 rows, 6081 columns and 21123 nonzeros
Model fingerprint: 0x2861ff72
Variable types: 1 continuous, 6080 integer (6080 binary)
Coefficient statistics:
  Matrix range     [1e+00, 4e+01]
  Objective range  [1e+00, 2e+01]
  Bounds range     [1e+00, 1e+00]
  RHS range        [1e+00, 1e+00]
Found heuristic solution: objective 771.8900668
Presolve time: 0.03s
Presolved: 4023 rows, 6081 columns, 21123 nonzeros
Variable types: 1 continuous, 6080 integer (6080 binary)

Root relaxation: objective 5.222144e+01, 5786 iterations, 0.34 seconds (0.30 work units)

    Nodes    |    Current Node    |     Objective Bounds      |     Work
 Expl Unexpl |  Obj  Depth IntInf | Incumbent    BestBd   Gap | It/Node Time

     0     0   52.22144    0  860  771.89007   52.22144  93.2%     -    0s
H    0     0                     438.0994580   52.22144  88.1%     -    0s
H    0     0                     379.4337665   52.22144  86.2%     -    0s
H    0     0                     102.3356527   52.22144  49.0%     -    0s
     0     0   56.86599    0 1192  102.33565   56.86599  44.4%     -    0s
H    0     0                      95.6658310   63.26925  33.9%     -    0s
     0     0   63.26925    0  670   95.66583   63.26925  33.9%     -    0s
     0     0   63.50264    0  836   95.66583   63.50264  33.6%     -    0s
     0     0   63.50264    0  833   95.66583   63.50264  33.6%     -    0s
     0     0   66.61990    0 1236   95.66583   66.61990  30.4%     -    1s
H    0     0                      87.3445883   66.61990  23.7%     -    1s
     0     0   66.65584    0 1217   87.34459   66.65584  23.7%     -    1s
     0     0   66.65584    0 1210   87.34459   66.65584  23.7%     -    1s
     0     0   67.89518    0 1245   87.34459   67.89518  22.3%     -    1s
     0     0   67.92561    0 1160   87.34459   67.92561  22.2%     -    1s
     0     0   67.92581    0 1161   87.34459   67.92581  22.2%     -    1s
     0     0   68.21431    0 1191   87.34459   68.21431  21.9%     -    1s
H    0     0                      84.4198424   68.21431  19.2%     -    1s
     0     0   68.24734    0 1241   84.41984   68.24734  19.2%     -    1s
     0     0   68.24869    0 1210   84.41984   68.24869  19.2%     -    1s
     0     0   68.62452    0 1206   84.41984   68.62452  18.7%     -    2s
     0     0   68.69557    0 1227   84.41984   68.69557  18.6%     -    2s
     0     0   68.70031    0 1213   84.41984   68.70031  18.6%     -    2s
     0     0   68.70161    0 1191   84.41984   68.70161  18.6%     -    2s
     0     0   68.70161    0 1213   84.41984   68.70161  18.6%     -    2s
     0     0   68.77340    0 1235   84.41984   68.77340  18.5%     -    2s
     0     0   68.78074    0 1231   84.41984   68.78074  18.5%     -    2s
     0     0   68.78074    0 1229   84.41984   68.78074  18.5%     -    2s
     0     0   68.78074    0 1199   84.41984   68.78074  18.5%     -    2s
     0     0   68.78074    0 1202   84.41984   68.78074  18.5%     -    2s
     0     0   68.80157    0 1282   84.41984   68.80157  18.5%     -    3s
     0     0   68.80157    0 1051   84.41984   68.80157  18.5%     -    3s
H    0     0                      76.8574014   68.80157  10.5%     -    3s
     0     2   68.80157    0 1044   76.85740   68.80157  10.5%     -    3s
H   31    43                      75.2154902   70.92855  5.70%  1091    4s
H   32    43                      75.0697099   70.92855  5.52%  1105    4s

Cutting planes:
  Gomory: 5
  Zero half: 182
  RLT: 205

Explored 220 nodes (124791 simplex iterations) in 4.94 seconds (4.39 work units)
Thread count was 32 (of 128 available processors)

Solution count 10: 75.0697 75.2155 76.8574 ... 771.89

Optimal solution found (tolerance 1.00e-04)
Best objective 7.506970989475e+01, best bound 7.506970989475e+01, gap 0.0000%
